% seed = 6111475

mint = 42;
% maxt = 94;

nActs = 22;
dur = [0,7,5,6,9,5,4,4,2,4,8,1,4,3,6,4,9,1,2,9,1,0];

nSkills = 4;
sreq = [| 0,0,0,0,
	| 3,0,0,1,
	| 1,0,1,0,
	| 0,2,0,3,
	| 3,3,0,0,
	| 1,0,2,0,
	| 2,0,2,0,
	| 1,3,0,0,
	| 0,0,3,2,
	| 1,0,0,2,
	| 2,0,1,0,
	| 0,2,2,0,
	| 0,3,2,0,
	| 0,0,3,2,
	| 0,0,2,3,
	| 0,1,1,0,
	| 1,3,0,0,
	| 3,1,0,0,
	| 2,0,0,2,
	| 2,0,1,0,
	| 2,0,3,0,
	| 0,0,0,0, |];

nResources = 15;
mastery = [| true,true,false,true,
	| true,false,true,true,
	| true,false,false,false,
	| false,true,false,false,
	| false,false,false,true,
	| false,true,false,true,
	| true,true,false,true,
	| true,false,true,true,
	| true,true,true,false,
	| true,true,false,true,
	| true,true,false,true,
	| true,true,true,false,
	| true,false,false,true,
	| false,false,false,true,
	| false,false,false,true, |];

nPrecs = 43;
pred = [1,1,1,2,2,2,3,3,3,4,4,4,5,5,5,6,6,6,7,7,8,8,8,9,9,9,10,10,10,11,12,13,13,13,14,15,16,17,18,18,19,20,21];
succ = [2,3,4,19,14,16,9,10,5,9,5,14,18,13,6,15,7,8,17,12,11,12,16,18,11,13,19,11,15,17,19,17,15,16,20,20,21,21,20,21,22,22,22];

nUnrels = 92;
unpred = [2,2,2,2,2,2,2,2,2,2,2,2,2,2,3,3,4,5,5,5,6,6,6,6,6,7,7,7,7,7,7,7,7,7,7,8,8,8,8,8,8,8,9,9,9,9,10,10,10,10,10,11,11,11,11,11,11,11,11,12,12,12,12,12,12,12,12,13,13,13,14,14,14,14,14,14,15,15,15,15,15,16,16,16,16,17,17,17,18,19,19,20];
unsucc = [3,4,5,6,7,8,9,10,11,12,13,15,17,18,4,14,10,9,10,14,9,10,13,14,18,8,9,10,11,13,14,15,16,18,20,9,10,13,14,15,18,20,10,12,14,19,12,13,14,16,18,12,13,14,15,16,18,19,20,13,14,15,16,17,18,20,21,14,18,19,15,16,17,18,19,21,16,17,18,19,21,17,18,19,20,18,19,20,19,20,21,21];

USEFUL_RES = [{},
	{1,2,3,5,6,7,8,9,10,11,12,13,14,15},
	{1,2,3,7,8,9,10,11,12,13},
	{1,2,4,5,6,7,8,9,10,11,12,13,14,15},
	{1,2,3,4,6,7,8,9,10,11,12,13},
	{1,2,3,7,8,9,10,11,12,13},
	{1,2,3,7,8,9,10,11,12,13},
	{1,2,3,4,6,7,8,9,10,11,12,13},
	{1,2,5,6,7,8,9,10,11,12,13,14,15},
	{1,2,3,5,6,7,8,9,10,11,12,13,14,15},
	{1,2,3,7,8,9,10,11,12,13},
	{1,2,4,6,7,8,9,10,11,12},
	{1,2,4,6,7,8,9,10,11,12},
	{1,2,5,6,7,8,9,10,11,12,13,14,15},
	{1,2,5,6,7,8,9,10,11,12,13,14,15},
	{1,2,4,6,7,8,9,10,11,12},
	{1,2,3,4,6,7,8,9,10,11,12,13},
	{1,2,3,4,6,7,8,9,10,11,12,13},
	{1,2,3,5,6,7,8,9,10,11,12,13,14,15},
	{1,2,3,7,8,9,10,11,12,13},
	{1,2,3,7,8,9,10,11,12,13},
	{}];

POTENTIAL_ACT = [{2,3,4,5,6,7,8,9,10,11,12,13,14,15,16,17,18,19,20,21},
	{2,3,4,5,6,7,8,9,10,11,12,13,14,15,16,17,18,19,20,21},
	{2,3,5,6,7,8,10,11,17,18,19,20,21},
	{4,5,8,12,13,16,17,18},
	{2,4,9,10,14,15,19},
	{2,4,5,8,9,10,12,13,14,15,16,17,18,19},
	{2,3,4,5,6,7,8,9,10,11,12,13,14,15,16,17,18,19,20,21},
	{2,3,4,5,6,7,8,9,10,11,12,13,14,15,16,17,18,19,20,21},
	{2,3,4,5,6,7,8,9,10,11,12,13,14,15,16,17,18,19,20,21},
	{2,3,4,5,6,7,8,9,10,11,12,13,14,15,16,17,18,19,20,21},
	{2,3,4,5,6,7,8,9,10,11,12,13,14,15,16,17,18,19,20,21},
	{2,3,4,5,6,7,8,9,10,11,12,13,14,15,16,17,18,19,20,21},
	{2,3,4,5,6,7,8,9,10,11,14,15,17,18,19,20,21},
	{2,4,9,10,14,15,19},
	{2,4,9,10,14,15,19}];
